qbf_easy_train/easy_457_UNSAT.qdimacs
p cnf 33 91
a 19 5 7 0
e 1 2 3 4 6 8 9 10 11 12 13 14 15 16 17 18 20 21 22 23 24 25 26 27 28 29 30 31 32 33 0
-3 -1 0
-3 -2 0
1 2 3 0
5 -3 0
5 -4 0
3 4 -5 0
7 -6 0
7 -4 0
6 4 -7 0
8 7 0
8 4 0
-7 -4 -8 0
-11 -9 0
-11 10 0
9 -10 11 0
-11 -6 -12 0
11 6 -12 0
-11 6 12 0
11 -6 12 0
13 -8 0
13 12 0
8 -12 -13 0
14 5 0
14 -13 0
-5 13 -14 0
-15 -1 0
-15 -9 0
1 9 15 0
-11 -15 -16 0
11 15 -16 0
-11 15 16 0
11 -15 16 0
-17 11 -18 0
17 -11 -18 0
-17 -11 18 0
17 11 18 0
-16 -18 -19 0
16 18 -19 0
-16 18 19 0
16 -18 19 0
20 -14 0
20 19 0
14 -19 -20 0
4 2 -21 0
-4 -2 -21 0
4 -2 21 0
-4 2 21 0
-22 -11 0
-22 1 0
11 -1 22 0
-23 -4 0
-23 -22 0
4 22 23 0
-2 -23 -24 0
2 23 -24 0
-2 23 24 0
2 -23 24 0
-26 -25 0
-26 1 0
25 -1 26 0
27 24 0
27 -26 0
-24 26 -27 0
-28 21 0
-28 27 0
-21 -27 28 0
-29 -20 0
-29 -28 0
20 28 29 0
30 -1 0
30 -3 0
1 3 -30 0
1 31 0
-1 31 0
-30 31 -32 0
30 -31 -32 0
-30 -31 32 0
30 31 32 0
-29 32 -33 0
29 -32 -33 0
-29 -32 33 0
29 32 33 0
14 23 -16 0
-26 -23 -28 0
14 27 30 -5 -26 -19 0
-24 -30 17 -7 0
20 4 29 -7 26 22 0
-29 6 9 0
-27 11 -21 29 -12 -9 31 0
-18 33 -30 28 -24 21 0
33 0
