sat_easy_train/easy_457_UNSAT.dimacs
p cnf 143 487
1 2 -3 0
-1 -2 -3 0
1 -2 3 0
-1 2 3 0
-4 1 0
-4 3 0
-1 -3 4 0
9 -7 0
9 -8 0
7 8 -9 0
-10 -6 0
-10 9 0
6 -9 10 0
-11 -5 0
-11 10 0
5 -10 11 0
-12 -4 0
-12 11 0
4 -11 12 0
14 13 0
14 -13 0
-15 -6 0
-15 14 0
6 -14 15 0
16 -15 0
16 -8 0
15 8 -16 0
-18 16 0
-18 -17 0
-16 17 18 0
-20 -10 0
-20 19 0
10 -19 20 0
-10 -20 -21 0
10 20 -21 0
-10 20 21 0
10 -20 21 0
19 21 -22 0
-19 -21 -22 0
19 -21 22 0
-19 21 22 0
-23 22 0
-23 19 0
-22 -19 23 0
24 23 0
24 17 0
-23 -17 -24 0
-26 24 0
-26 -25 0
-24 25 26 0
-27 -1 0
-27 -13 0
1 13 27 0
28 -26 0
28 -27 0
26 27 -28 0
-18 -28 -29 0
18 28 -29 0
-18 28 29 0
18 -28 29 0
-30 12 0
-30 -29 0
-12 29 30 0
27 13 -31 0
-27 -13 -31 0
27 -13 31 0
-27 13 31 0
7 -32 -33 0
-7 32 -33 0
7 32 33 0
-7 -32 33 0
34 -31 0
34 -33 0
31 33 -34 0
35 11 0
35 -11 0
-36 -34 0
-36 35 0
34 -35 36 0
37 -36 0
37 -31 0
36 31 -37 0
38 36 0
38 37 0
-36 -37 -38 0
-38 -2 -39 0
38 2 -39 0
-38 2 39 0
38 -2 39 0
30 -39 -40 0
-30 39 -40 0
30 39 40 0
-30 -39 40 0
10 13 -41 0
-10 -13 -41 0
10 -13 41 0
-10 13 41 0
41 9 -42 0
-41 -9 -42 0
41 -9 42 0
-41 9 42 0
43 23 0
43 -42 0
-23 42 -43 0
-18 -5 -44 0
18 5 -44 0
-18 5 44 0
18 -5 44 0
-45 -43 0
-45 44 0
43 -44 45 0
8 -24 -46 0
-8 24 -46 0
8 24 46 0
-8 -24 46 0
48 31 0
48 -47 0
-31 47 -48 0
46 48 -49 0
-46 -48 -49 0
46 -48 49 0
-46 48 49 0
50 45 0
50 49 0
-45 -49 -50 0
-40 -50 -51 0
40 50 -51 0
-40 50 51 0
40 -50 51 0
52 32 0
52 17 0
-32 -17 -52 0
53 52 0
53 16 0
-52 -16 -53 0
3 -20 -55 0
-3 20 -55 0
3 20 55 0
-3 -20 55 0
-56 -54 0
-56 55 0
54 -55 56 0
-21 -14 -57 0
21 14 -57 0
-21 14 57 0
21 -14 57 0
58 -31 0
58 57 0
31 -57 -58 0
58 -2 -59 0
-58 2 -59 0
58 2 59 0
-58 -2 59 0
56 -59 -60 0
-56 59 -60 0
56 59 60 0
-56 -59 60 0
-53 -60 -61 0
53 60 -61 0
-53 60 61 0
53 -60 61 0
51 -61 -62 0
-51 61 -62 0
51 61 62 0
-51 -61 62 0
-63 3 0
-63 -27 0
-3 27 63 0
-64 3 0
-64 -21 0
-3 21 64 0
-63 -64 -65 0
63 64 -65 0
-63 64 65 0
63 -64 65 0
66 -41 0
66 -36 0
41 36 -66 0
67 -65 0
67 -66 0
65 66 -67 0
68 -35 0
68 -35 0
35 -68 0
69 67 0
69 -68 0
-67 68 -69 0
27 1 -70 0
-27 -1 -70 0
27 -1 70 0
-27 1 70 0
72 -52 0
72 -27 0
52 27 -72 0
73 71 0
73 72 0
-71 -72 -73 0
-74 -73 0
-74 32 0
73 -32 74 0
70 -74 -75 0
-70 74 -75 0
70 74 75 0
-70 -74 75 0
-76 55 0
-76 -22 0
-55 22 76 0
75 -76 -77 0
-75 76 -77 0
75 76 77 0
-75 -76 77 0
78 -17 0
78 17 0
-79 -25 0
-79 -78 0
25 78 79 0
-79 3 -80 0
79 -3 -80 0
-79 -3 80 0
79 3 80 0
80 -79 -81 0
-80 79 -81 0
80 79 81 0
-80 -79 81 0
-82 -33 0
-82 81 0
33 -81 82 0
77 -82 -83 0
-77 82 -83 0
77 82 83 0
-77 -82 83 0
-69 83 -84 0
69 -83 -84 0
-69 -83 84 0
69 83 84 0
15 72 -85 0
-15 -72 -85 0
15 -72 85 0
-15 72 85 0
-86 -84 0
-86 85 0
84 -85 86 0
87 71 0
87 -63 0
-71 63 -87 0
-88 -72 0
-88 87 0
72 -87 88 0
-89 -57 0
-89 -32 0
57 32 89 0
-90 88 0
-90 -89 0
-88 89 90 0
56 57 -91 0
-56 -57 -91 0
56 -57 91 0
-56 57 91 0
-92 -26 0
-92 -11 0
26 11 92 0
-93 91 0
-93 92 0
-91 -92 93 0
-94 -90 0
-94 93 0
90 -93 94 0
96 -95 0
96 -63 0
95 63 -96 0
-97 14 0
-97 -2 0
-14 2 97 0
98 -9 0
98 14 0
9 -14 -98 0
-78 -98 -99 0
78 98 -99 0
-78 98 99 0
78 -98 99 0
100 97 0
100 -99 0
-97 99 -100 0
96 100 -101 0
-96 -100 -101 0
96 -100 101 0
-96 100 101 0
102 -94 0
102 101 0
94 -101 -102 0
86 102 -103 0
-86 -102 -103 0
86 -102 103 0
-86 102 103 0
32 79 -104 0
-32 -79 -104 0
32 -79 104 0
-32 79 104 0
-20 -105 -106 0
20 105 -106 0
-20 105 106 0
20 -105 106 0
-107 98 0
-107 -73 0
-98 73 107 0
-108 106 0
-108 107 0
-106 -107 108 0
-109 -23 0
-109 -34 0
23 34 109 0
8 -41 -110 0
-8 41 -110 0
8 41 110 0
-8 -41 110 0
-111 16 0
-111 -110 0
-16 110 111 0
-112 -3 0
-112 -1 0
3 1 112 0
-113 21 0
-113 112 0
-21 -112 113 0
18 113 -114 0
-18 -113 -114 0
18 -113 114 0
-18 113 114 0
-111 114 -115 0
111 -114 -115 0
-111 -114 115 0
111 114 115 0
-109 -115 -116 0
109 115 -116 0
-109 115 116 0
109 -115 116 0
117 108 0
117 116 0
-108 -116 -117 0
-118 47 0
-118 -112 0
-47 112 118 0
-119 -7 0
-119 -113 0
7 113 119 0
120 118 0
120 119 0
-118 -119 -120 0
-121 -73 0
-121 41 0
73 -41 121 0
-120 -121 -122 0
120 121 -122 0
-120 121 122 0
120 -121 122 0
123 -72 0
123 112 0
72 -112 -123 0
-124 -122 0
-124 123 0
122 -123 124 0
-28 -14 -125 0
28 14 -125 0
-28 14 125 0
28 -14 125 0
-126 125 0
-126 18 0
-125 -18 126 0
-1 127 0
1 127 0
-127 -19 -128 0
127 19 -128 0
-127 19 128 0
127 -19 128 0
-129 -128 0
-129 34 0
128 -34 129 0
130 24 0
130 -129 0
-24 129 -130 0
131 55 0
131 -54 0
-55 54 -131 0
-132 -130 0
-132 -131 0
130 131 132 0
-18 127 -133 0
18 -127 -133 0
-18 -127 133 0
18 127 133 0
-134 133 0
-134 -110 0
-133 110 134 0
-135 -132 0
-135 134 0
132 -134 135 0
126 135 -136 0
-126 -135 -136 0
126 -135 136 0
-126 135 136 0
137 124 0
137 136 0
-124 -136 -137 0
138 117 0
138 -137 0
-117 137 -138 0
-139 -13 0
-139 -87 0
13 87 139 0
-138 -139 -140 0
138 139 -140 0
-138 139 140 0
138 -139 140 0
141 104 0
141 140 0
-104 -140 -141 0
103 141 -142 0
-103 -141 -142 0
103 -141 142 0
-103 141 142 0
143 -62 0
143 142 0
62 -142 -143 0
-78 -87 -70 43 -143 0
-10 124 -141 42 0
114 11 113 -19 -127 0
-72 -60 -4 139 0
-17 76 -127 0
67 -134 -34 -142 57 141 0
81 135 -113 -45 0
9 71 0
43 -94 0
129 -42 94 -106 0
2 -59 -123 -70 0
18 -22 107 -73 0
43 -105 -84 69 -47 0
113 -36 -8 -75 121 0
89 -24 -110 0
-23 -126 -48 103 88 -138 0
26 131 0
5 12 133 0
-10 -134 -13 0
54 -92 -52 79 51 -137 0
113 -121 103 0
-45 -71 -53 -27 -59 -7 0
-2 -108 22 0
-29 -103 70 -71 112 30 0
21 56 32 129 -112 110 0
32 -6 -29 -10 37 -83 0
-79 3 0
16 109 -54 -39 -33 -131 0
129 121 27 0
-60 37 112 -89 110 138 0
73 32 -91 0
-66 -34 83 0
100 -82 -76 0
-62 -113 120 0
52 -44 41 -134 0
129 92 0
133 -83 0
82 -11 -55 -49 -40 18 0
92 85 120 0
115 -55 13 0
-16 128 0
-57 60 -73 0
23 109 7 -70 81 -50 0
-30 124 -127 98 0
111 116 0
21 -73 77 6 0
104 32 113 0
108 -7 -16 -18 -140 0
5 14 127 47 0
92 51 -87 132 0
-56 20 65 -111 26 -105 0
-75 95 28 0
-37 16 -126 0
-83 69 66 0
-64 -112 -38 0
30 -58 -31 0
3 39 0
111 119 0
107 113 0
107 -95 -29 118 0
-129 -62 -86 -107 -10 0
100 114 -126 94 0
71 -104 47 0
143 0
